outputs/case_21.model.txt
before_rule_amendment = False
competent_authority_rules_defined = True
foreign_experience_years = 0
investment_manager_correction_done = False
association_recognized = False
passed_senior_broker_exam = False
has_senior_broker_certificate = False
qualified_before_2004_10_31 = False
foreign_analyst_qualification = False
before_rule_enactment = False
violation_of_law = True
affects_normal_business = True
passed_trust_business_exam = False
university_degree_recognized = False
passed_regulation_exam = False
fund_manager_experience_years = 0
passed_business_staff_exam = False
media_analyst_correction_done = False
years_business_experience = 0
investment_manager_qualification_ok = False
passed_analyst_exam = False
media_analyst_correction_completed = False
violation_investment_diversification_ratio = False
media_analyst_correction_overdue = False
reporting_system_defined = True
internal_control_requirements_met = True
media_analyst_qualification_ok = False
business_staff_qualification_ok = False
internal_control_designed = True
internal_control_executed = True
internal_organization_structure_defined = True
violation_investment_scope_limit_2 = False
investment_manager_correction_overdue = False
media_analyst_correction_required = False
penalty_authority_action_allowed = True
investment_manager_correction_completed = False
internal_control_reviewed = True
violation_business_without_license = False
investment_manager_correction_required = False
violation_branch_establishment_rules = False
appropriate_authority_and_responsibility_defined = True
violation_other_law_violations = False
violation_business_without_approval = False
analyst_qualification_ok = False
violation_investment_scope_limit_1 = False
internal_control_execution_and_review = True
violation_affecting_business = True
violation_behavior_rules = False
violation_restriction_rules = False
personnel_qualification_rules_set = True
penalty = False
violation_items = False
manager_setup_and_policies_defined = True